benchmarks_CP/INST_36x36/30/inst36x36_30_1.dzn
S=6;
start=[|
-1,	-1,	-1,	-1,	32,	-1,	-1,	36,	-1,	-1,	-1,	28,	-1,	-1,	27,	-1,	-1,	14,	-1,	-1,	-1,	-1,	-1,	-1,	-1,	23,	33,	-1,	-1,	29,	-1,	-1,	-1,	-1,	-1,	-1|
-1,	-1,	-1,	30,	-1,	-1,	5,	7,	-1,	22,	-1,	10,	-1,	-1,	-1,	-1,	-1,	-1,	-1,	-1,	-1,	21,	-1,	17,	-1,	2,	14,	20,	-1,	4,	-1,	25,	1,	-1,	-1,	29|
23,	-1,	-1,	-1,	-1,	-1,	4,	-1,	-1,	-1,	9,	-1,	-1,	-1,	18,	-1,	20,	-1,	30,	-1,	6,	27,	-1,	-1,	-1,	-1,	8,	-1,	-1,	-1,	-1,	-1,	-1,	-1,	-1,	17|
27,	-1,	-1,	-1,	2,	-1,	-1,	-1,	29,	-1,	-1,	-1,	-1,	-1,	-1,	17,	-1,	-1,	-1,	-1,	28,	-1,	-1,	25,	-1,	-1,	-1,	35,	-1,	-1,	-1,	-1,	26,	14,	-1,	7|
11,	10,	-1,	-1,	-1,	-1,	20,	33,	13,	-1,	21,	18,	-1,	4,	-1,	-1,	-1,	2,	-1,	-1,	-1,	-1,	-1,	-1,	-1,	-1,	-1,	-1,	-1,	26,	-1,	35,	-1,	-1,	-1,	-1|
-1,	-1,	14,	-1,	-1,	33,	-1,	-1,	-1,	-1,	-1,	-1,	5,	-1,	35,	-1,	-1,	-1,	-1,	10,	-1,	-1,	16,	-1,	22,	11,	-1,	1,	34,	-1,	-1,	-1,	24,	36,	-1,	4|
-1,	25,	-1,	34,	-1,	32,	-1,	-1,	36,	23,	-1,	-1,	13,	20,	-1,	-1,	-1,	-1,	-1,	-1,	-1,	-1,	-1,	26,	-1,	-1,	-1,	2,	-1,	-1,	-1,	-1,	27,	-1,	-1,	-1|
8,	4,	-1,	24,	23,	-1,	-1,	-1,	19,	-1,	15,	-1,	36,	3,	-1,	-1,	-1,	-1,	32,	31,	-1,	5,	-1,	-1,	-1,	-1,	-1,	33,	-1,	-1,	-1,	-1,	-1,	26,	-1,	-1|
-1,	-1,	-1,	17,	6,	-1,	-1,	-1,	-1,	-1,	-1,	31,	-1,	8,	-1,	-1,	-1,	19,	-1,	-1,	-1,	-1,	-1,	21,	29,	-1,	3,	9,	-1,	-1,	-1,	-1,	-1,	-1,	16,	-1|
-1,	-1,	28,	-1,	-1,	-1,	-1,	-1,	-1,	5,	-1,	-1,	10,	21,	-1,	15,	-1,	-1,	-1,	6,	33,	-1,	-1,	-1,	-1,	-1,	12,	-1,	-1,	17,	29,	-1,	-1,	-1,	-1,	-1|
-1,	26,	-1,	-1,	33,	-1,	-1,	-1,	34,	32,	-1,	8,	-1,	-1,	-1,	-1,	-1,	-1,	29,	25,	19,	22,	-1,	-1,	18,	-1,	-1,	-1,	-1,	13,	-1,	-1,	-1,	-1,	-1,	-1|
18,	35,	-1,	-1,	-1,	-1,	26,	-1,	-1,	-1,	-1,	-1,	-1,	-1,	-1,	-1,	-1,	-1,	-1,	-1,	-1,	-1,	13,	1,	-1,	-1,	-1,	24,	-1,	6,	-1,	36,	-1,	-1,	-1,	-1|
21,	-1,	-1,	-1,	-1,	20,	13,	-1,	-1,	-1,	-1,	-1,	-1,	-1,	28,	-1,	-1,	6,	-1,	-1,	-1,	-1,	-1,	-1,	9,	-1,	-1,	34,	-1,	33,	-1,	15,	-1,	-1,	23,	-1|
22,	-1,	-1,	35,	13,	-1,	-1,	-1,	-1,	-1,	11,	-1,	26,	-1,	20,	-1,	19,	4,	-1,	-1,	-1,	15,	-1,	27,	36,	-1,	7,	-1,	17,	-1,	-1,	5,	9,	-1,	-1,	-1|
30,	-1,	-1,	-1,	-1,	6,	-1,	-1,	-1,	-1,	-1,	35,	-1,	-1,	-1,	31,	-1,	-1,	-1,	20,	34,	-1,	21,	-1,	-1,	27,	-1,	-1,	-1,	-1,	-1,	12,	-1,	24,	-1,	-1|
-1,	36,	19,	-1,	-1,	-1,	-1,	4,	-1,	7,	-1,	-1,	18,	15,	-1,	27,	-1,	3,	-1,	-1,	11,	-1,	-1,	-1,	-1,	8,	32,	-1,	6,	16,	-1,	-1,	-1,	21,	-1,	-1|
-1,	-1,	-1,	-1,	-1,	-1,	-1,	-1,	20,	-1,	-1,	-1,	-1,	-1,	-1,	-1,	-1,	16,	-1,	-1,	-1,	29,	-1,	13,	-1,	-1,	-1,	-1,	-1,	18,	8,	-1,	17,	-1,	-1,	-1|
-1,	-1,	29,	-1,	-1,	-1,	-1,	-1,	-1,	-1,	-1,	-1,	21,	-1,	-1,	-1,	-1,	36,	-1,	-1,	-1,	-1,	-1,	-1,	20,	14,	-1,	-1,	2,	-1,	1,	-1,	-1,	-1,	-1,	18|
-1,	16,	-1,	-1,	20,	27,	-1,	-1,	-1,	-1,	25,	-1,	19,	17,	-1,	8,	-1,	-1,	-1,	-1,	-1,	32,	35,	-1,	-1,	-1,	-1,	-1,	11,	24,	-1,	-1,	-1,	-1,	36,	-1|
-1,	-1,	-1,	2,	-1,	-1,	-1,	-1,	-1,	-1,	-1,	-1,	-1,	-1,	-1,	-1,	28,	-1,	-1,	-1,	25,	12,	19,	14,	-1,	-1,	-1,	-1,	-1,	9,	-1,	-1,	-1,	-1,	-1,	-1|
-1,	24,	-1,	-1,	-1,	-1,	11,	-1,	-1,	-1,	-1,	-1,	-1,	-1,	-1,	-1,	-1,	-1,	16,	-1,	-1,	31,	9,	-1,	-1,	-1,	23,	-1,	-1,	20,	-1,	7,	25,	13,	-1,	-1|
-1,	-1,	-1,	-1,	-1,	-1,	-1,	-1,	-1,	-1,	-1,	-1,	-1,	-1,	-1,	-1,	-1,	-1,	-1,	11,	-1,	-1,	-1,	-1,	2,	-1,	-1,	26,	-1,	-1,	23,	-1,	-1,	-1,	-1,	-1|
-1,	-1,	-1,	5,	-1,	14,	-1,	-1,	-1,	-1,	28,	-1,	-1,	18,	-1,	-1,	-1,	-1,	-1,	-1,	-1,	-1,	-1,	-1,	-1,	-1,	25,	-1,	-1,	27,	26,	-1,	-1,	-1,	-1,	31|
-1,	-1,	-1,	33,	-1,	-1,	24,	-1,	-1,	21,	13,	-1,	16,	-1,	-1,	-1,	-1,	5,	-1,	22,	2,	-1,	-1,	8,	-1,	-1,	10,	12,	-1,	-1,	-1,	-1,	-1,	28,	15,	-1|
-1,	-1,	-1,	-1,	-1,	-1,	-1,	-1,	-1,	13,	34,	-1,	-1,	28,	-1,	-1,	4,	29,	21,	-1,	-1,	-1,	-1,	-1,	-1,	-1,	9,	-1,	-1,	-1,	-1,	27,	-1,	32,	-1,	-1|
32,	11,	-1,	-1,	4,	5,	-1,	-1,	-1,	-1,	-1,	-1,	12,	-1,	-1,	-1,	9,	-1,	-1,	-1,	-1,	-1,	-1,	-1,	17,	-1,	27,	16,	20,	-1,	-1,	-1,	-1,	-1,	-1,	-1|
-1,	28,	-1,	14,	31,	23,	-1,	-1,	-1,	-1,	19,	26,	-1,	32,	-1,	-1,	-1,	21,	25,	-1,	-1,	-1,	12,	-1,	11,	-1,	4,	-1,	-1,	-1,	-1,	17,	-1,	8,	-1,	-1|
20,	15,	-1,	3,	24,	-1,	21,	29,	-1,	-1,	-1,	9,	-1,	-1,	-1,	-1,	-1,	-1,	-1,	-1,	-1,	-1,	4,	-1,	32,	-1,	-1,	22,	25,	-1,	-1,	-1,	6,	-1,	-1,	-1|
-1,	-1,	13,	-1,	-1,	-1,	-1,	28,	5,	-1,	17,	-1,	20,	31,	11,	-1,	15,	-1,	-1,	-1,	16,	-1,	-1,	32,	24,	6,	36,	-1,	-1,	-1,	-1,	-1,	-1,	4,	-1,	-1|
-1,	9,	8,	-1,	-1,	-1,	-1,	10,	7,	-1,	-1,	-1,	-1,	-1,	5,	-1,	30,	35,	27,	-1,	-1,	11,	-1,	-1,	19,	34,	-1,	-1,	23,	-1,	24,	1,	-1,	-1,	-1,	-1|
-1,	-1,	-1,	28,	-1,	12,	10,	-1,	22,	33,	-1,	-1,	-1,	-1,	32,	-1,	25,	26,	-1,	4,	-1,	-1,	-1,	9,	-1,	-1,	-1,	11,	-1,	-1,	16,	31,	-1,	-1,	14,	-1|
-1,	-1,	6,	13,	-1,	15,	19,	-1,	-1,	12,	5,	32,	4,	-1,	-1,	-1,	14,	-1,	33,	8,	29,	-1,	34,	18,	21,	-1,	-1,	17,	-1,	-1,	-1,	20,	-1,	23,	26,	-1|
-1,	-1,	23,	4,	-1,	-1,	-1,	17,	-1,	-1,	24,	-1,	9,	-1,	-1,	-1,	-1,	27,	7,	-1,	-1,	-1,	2,	-1,	-1,	18,	-1,	-1,	-1,	-1,	10,	-1,	-1,	6,	-1,	11|
-1,	-1,	-1,	-1,	-1,	-1,	2,	-1,	-1,	-1,	23,	-1,	-1,	-1,	-1,	-1,	24,	-1,	-1,	13,	35,	28,	10,	19,	-1,	25,	-1,	-1,	-1,	-1,	-1,	-1,	-1,	-1,	-1,	-1|
-1,	-1,	-1,	-1,	-1,	31,	-1,	15,	4,	-1,	-1,	-1,	-1,	-1,	12,	-1,	-1,	-1,	11,	27,	-1,	26,	-1,	-1,	14,	-1,	-1,	-1,	29,	-1,	-1,	-1,	-1,	33,	-1,	13|
-1,	-1,	-1,	-1,	-1,	19,	-1,	26,	-1,	9,	-1,	-1,	-1,	-1,	-1,	-1,	-1,	-1,	36,	-1,	-1,	-1,	-1,	-1,	-1,	-1,	-1,	-1,	-1,	-1,	-1,	-1,	-1,	-1,	-1,	-1|];
